10 6 15 4 18 14 11 7 8 5 9 19 13 12 17 1 0 2 16 3  
10 6 15 4 18 14 11 7 8 5 9 19 13 12 0 2 17 1 16 3  
10 6 15 4 18 14 11 7 8 5 9 19 13 12 0 16 17 1 2 3  
10 6 15 4 18 14 11 7 8 5 9 19 13 12 0 2 17 1 16 3  
10 6 15 4 18 14 11 7 8 5 9 19 13 12 0 2 16 3 17 1  
10 6 4 15 18 14 11 7 8 5 9 19 2 13 12 0 1 17 16 3  
10 6 15 4 14 18 11 7 8 5 9 19 13 12 17 1 0 2 16 3  
10 6 15 4 18 14 11 7 8 5 9 19 13 12 17 1 0 2 16 3  
10 6 4 15 18 14 11 7 8 5 9 19 2 13 12 0 1 17 16 3  
10 6 15 4 18 14 11 7 8 5 9 19 13 12 0 16 17 1 2 3  
10 6 15 4 18 14 11 7 8 5 9 19 13 12 17 1 0 2 16 3  
10 6 15 4 18 14 11 7 8 5 9 19 2 13 12 17 16 0 3 1  
6 10 4 15 18 14 11 17 8 12 5 9 19 2 16 0 13 7 3 1  
6 10 4 15 18 14 11 17 8 12 5 9 19 13 16 0 1 7 2 3  
6 10 4 15 18 11 7 8 5 9 19 13 12 0 2 17 1 16 3 14  
10 6 4 15 18 14 7 8 11 5 9 19 2 13 12 17 1 0 16 3  
10 6 15 4 18 14 11 7 8 5 9 19 13 12 17 1 0 2 16 3  
10 6 15 4 18 14 11 7 8 5 9 19 2 13 12 17 16 0 1 3  
10 6 4 15 18 14 11 7 8 5 9 19 2 13 12 17 1 0 16 3  
10 6 15 4 18 14 7 8 11 5 9 19 13 12 0 2 17 1 16 3  
10 6 15 4 18 14 11 17 8 12 5 9 19 2 1 0 7 13 16 3  
6 10 4 15 18 11 7 8 5 9 19 2 13 12 0 17 1 16 3 14  
10 6 15 4 18 14 11 7 8 5 9 19 13 12 17 1 0 2 16 3  
10 6 15 4 18 14 11 17 8 12 5 9 19 2 13 7 16 0 1 3  
10 6 15 4 18 14 11 7 8 5 9 19 2 13 12 17 16 0 1 3  
10 6 15 4 18 14 11 17 8 12 5 9 19 0 16 2 3 1 7 13  
10 6 4 15 18 14 11 7 8 5 9 19 2 13 12 0 1 17 16 3  
10 6 15 4 18 14 12 17 8 11 5 9 19 2 0 1 7 13 16 3  
10 6 15 4 18 14 11 17 8 12 5 9 19 2 7 0 1 13 16 3  
10 6 15 4 18 14 11 17 8 12 5 9 19 2 7 3 16 1 0 13  
6 10 4 15 18 14 11 17 8 12 5 9 19 13 16 7 1 0 2 3  
10 6 15 4 18 14 11 17 8 12 5 9 19 2 16 7 13 0 1 3  
10 6 15 4 18 14 11 17 8 12 5 9 19 2 0 1 13 16 7 3  
4 10 6 18 15 14 11 17 8 12 5 9 19 2 16 0 13 7 3 1  
10 6 15 4 18 14 11 17 8 12 5 9 19 13 16 0 1 7 3 2  
